
exclude_bands = 17-64

Begin Projections
Si:sp3
End Projections

# Disentanglement
dis_win_min = -7
dis_win_max = 17
dis_num_iter = 100

guiding_centres = true

# This part was generated automatically by VASP
num_bands = 48
num_wann = 8
begin unit_cell_cart
     2.7150000     2.7150000     0.0000000
     0.0000000     2.7150000     2.7150000
     2.7150000     0.0000000     2.7150000
end unit_cell_cart
begin atoms_cart
Si       0.0000000     0.0000000     0.0000000
Si       1.3575000     1.3575000     1.3575000
end atoms_cart
mp_grid =     6     6     6
begin kpoints
      0.000000000000      0.000000000000      0.000000000000
      0.166666666667      0.000000000000      0.000000000000
      0.333333333333      0.000000000000      0.000000000000
      0.500000000000      0.000000000000      0.000000000000
      0.166666666667      0.166666666667      0.000000000000
      0.333333333333      0.166666666667      0.000000000000
      0.500000000000      0.166666666667      0.000000000000
     -0.333333333333      0.166666666667      0.000000000000
     -0.166666666667      0.166666666667      0.000000000000
      0.333333333333      0.333333333333      0.000000000000
      0.500000000000      0.333333333333      0.000000000000
     -0.333333333333      0.333333333333      0.000000000000
      0.500000000000      0.500000000000      0.000000000000
      0.500000000000      0.333333333333      0.166666666667
     -0.333333333333      0.333333333333      0.166666666667
     -0.333333333333      0.500000000000      0.166666666667
      0.000000000000      0.166666666667      0.000000000000
      0.000000000000      0.000000000000      0.166666666667
     -0.166666666667     -0.166666666667     -0.166666666667
     -0.166666666667     -0.000000000000     -0.000000000000
     -0.000000000000     -0.166666666667     -0.000000000000
     -0.000000000000     -0.000000000000     -0.166666666667
      0.166666666667      0.166666666667      0.166666666667
      0.000000000000      0.333333333333      0.000000000000
      0.000000000000      0.000000000000      0.333333333333
     -0.333333333333     -0.333333333333     -0.333333333333
     -0.333333333333     -0.000000000000     -0.000000000000
     -0.000000000000     -0.333333333333     -0.000000000000
     -0.000000000000     -0.000000000000     -0.333333333333
      0.333333333333      0.333333333333      0.333333333333
      0.000000000000      0.500000000000      0.000000000000
      0.000000000000      0.000000000000      0.500000000000
     -0.500000000000     -0.500000000000     -0.500000000000
      0.000000000000      0.166666666667      0.166666666667
      0.166666666667      0.000000000000      0.166666666667
     -0.166666666667     -0.166666666667      0.000000000000
     -0.166666666667      0.000000000000     -0.166666666667
      0.000000000000     -0.166666666667     -0.166666666667
      0.000000000000      0.333333333333      0.166666666667
      0.166666666667      0.000000000000      0.333333333333
     -0.166666666667     -0.166666666667      0.166666666667
     -0.333333333333     -0.166666666667     -0.333333333333
      0.166666666667      0.333333333333     -0.000000000000
      0.166666666667     -0.166666666667     -0.166666666667
     -0.333333333333     -0.333333333333     -0.166666666667
     -0.000000000000      0.166666666667      0.333333333333
     -0.166666666667      0.166666666667     -0.166666666667
     -0.166666666667     -0.333333333333     -0.333333333333
      0.333333333333     -0.000000000000      0.166666666667
     -0.333333333333     -0.166666666667     -0.000000000000
     -0.000000000000     -0.333333333333     -0.166666666667
     -0.166666666667     -0.000000000000     -0.333333333333
      0.166666666667      0.166666666667     -0.166666666667
      0.333333333333      0.166666666667      0.333333333333
     -0.166666666667     -0.333333333333      0.000000000000
     -0.166666666667      0.166666666667      0.166666666667
      0.333333333333      0.333333333333      0.166666666667
      0.000000000000     -0.166666666667     -0.333333333333
      0.166666666667     -0.166666666667      0.166666666667
      0.166666666667      0.333333333333      0.333333333333
     -0.333333333333      0.000000000000     -0.166666666667
      0.000000000000      0.500000000000      0.166666666667
      0.166666666667      0.000000000000      0.500000000000
     -0.166666666667     -0.166666666667      0.333333333333
     -0.500000000000     -0.333333333333     -0.500000000000
      0.166666666667      0.500000000000     -0.000000000000
      0.333333333333     -0.166666666667     -0.166666666667
     -0.500000000000     -0.500000000000     -0.333333333333
     -0.000000000000      0.166666666667      0.500000000000
     -0.166666666667      0.333333333333     -0.166666666667
     -0.333333333333     -0.500000000000     -0.500000000000
      0.500000000000     -0.000000000000      0.166666666667
     -0.500000000000     -0.166666666667     -0.000000000000
     -0.000000000000     -0.500000000000     -0.166666666667
     -0.166666666667     -0.000000000000     -0.500000000000
      0.166666666667      0.166666666667     -0.333333333333
      0.500000000000      0.333333333333      0.500000000000
     -0.166666666667     -0.500000000000      0.000000000000
     -0.333333333333      0.166666666667      0.166666666667
      0.500000000000      0.500000000000      0.333333333333
      0.000000000000     -0.166666666667     -0.500000000000
      0.166666666667     -0.333333333333      0.166666666667
      0.333333333333      0.500000000000      0.500000000000
     -0.500000000000      0.000000000000     -0.166666666667
      0.000000000000     -0.333333333333      0.166666666667
      0.166666666667      0.000000000000     -0.333333333333
     -0.166666666667     -0.166666666667     -0.500000000000
      0.333333333333      0.500000000000      0.333333333333
      0.166666666667     -0.333333333333     -0.000000000000
     -0.500000000000     -0.166666666667     -0.166666666667
      0.333333333333      0.333333333333      0.500000000000
     -0.000000000000      0.166666666667     -0.333333333333
     -0.166666666667     -0.500000000000     -0.166666666667
      0.500000000000      0.333333333333      0.333333333333
     -0.333333333333     -0.000000000000      0.166666666667
      0.333333333333     -0.166666666667     -0.000000000000
     -0.000000000000      0.333333333333     -0.166666666667
     -0.166666666667     -0.000000000000      0.333333333333
      0.166666666667      0.166666666667      0.500000000000
     -0.333333333333     -0.500000000000     -0.333333333333
     -0.166666666667      0.333333333333      0.000000000000
      0.500000000000      0.166666666667      0.166666666667
     -0.333333333333     -0.333333333333     -0.500000000000
      0.000000000000     -0.166666666667      0.333333333333
      0.166666666667      0.500000000000      0.166666666667
     -0.500000000000     -0.333333333333     -0.333333333333
      0.333333333333      0.000000000000     -0.166666666667
      0.000000000000     -0.166666666667      0.166666666667
      0.166666666667      0.000000000000     -0.166666666667
     -0.166666666667     -0.166666666667     -0.333333333333
      0.166666666667      0.333333333333      0.166666666667
      0.166666666667     -0.166666666667     -0.000000000000
     -0.333333333333     -0.166666666667     -0.166666666667
      0.166666666667      0.166666666667      0.333333333333
     -0.000000000000      0.166666666667     -0.166666666667
     -0.166666666667     -0.333333333333     -0.166666666667
      0.333333333333      0.166666666667      0.166666666667
     -0.166666666667     -0.000000000000      0.166666666667
      0.000000000000      0.333333333333      0.333333333333
      0.333333333333      0.000000000000      0.333333333333
     -0.333333333333     -0.333333333333      0.000000000000
     -0.333333333333     -0.000000000000     -0.333333333333
      0.000000000000     -0.333333333333     -0.333333333333
      0.000000000000      0.500000000000      0.333333333333
      0.333333333333      0.000000000000      0.500000000000
     -0.333333333333     -0.333333333333      0.166666666667
     -0.500000000000     -0.166666666667     -0.500000000000
      0.333333333333      0.500000000000     -0.000000000000
      0.166666666667     -0.333333333333     -0.333333333333
     -0.500000000000     -0.500000000000     -0.166666666667
     -0.000000000000      0.333333333333      0.500000000000
     -0.333333333333      0.166666666667     -0.333333333333
     -0.166666666667     -0.500000000000     -0.500000000000
      0.500000000000     -0.000000000000      0.333333333333
     -0.500000000000     -0.333333333333     -0.000000000000
     -0.000000000000     -0.500000000000     -0.333333333333
     -0.333333333333     -0.000000000000     -0.500000000000
      0.333333333333      0.333333333333     -0.166666666667
      0.500000000000      0.166666666667      0.500000000000
     -0.333333333333     -0.500000000000      0.000000000000
     -0.166666666667      0.333333333333      0.333333333333
      0.500000000000      0.500000000000      0.166666666667
      0.000000000000     -0.333333333333     -0.500000000000
      0.333333333333     -0.166666666667      0.333333333333
      0.166666666667      0.500000000000      0.500000000000
     -0.500000000000      0.000000000000     -0.333333333333
      0.000000000000     -0.333333333333      0.333333333333
      0.333333333333      0.000000000000     -0.333333333333
     -0.333333333333     -0.333333333333     -0.666666666667
      0.333333333333      0.666666666667      0.333333333333
      0.333333333333     -0.333333333333     -0.000000000000
     -0.666666666667     -0.333333333333     -0.333333333333
      0.333333333333      0.333333333333      0.666666666667
     -0.000000000000      0.333333333333     -0.333333333333
     -0.333333333333     -0.666666666667     -0.333333333333
      0.666666666667      0.333333333333      0.333333333333
     -0.333333333333     -0.000000000000      0.333333333333
      0.000000000000      0.500000000000      0.500000000000
      0.500000000000      0.000000000000      0.500000000000
      0.166666666667      0.500000000000      0.333333333333
      0.333333333333      0.166666666667      0.500000000000
     -0.333333333333     -0.166666666667      0.166666666667
     -0.500000000000     -0.166666666667     -0.333333333333
     -0.166666666667      0.333333333333      0.166666666667
      0.166666666667      0.333333333333     -0.166666666667
      0.166666666667     -0.166666666667     -0.333333333333
     -0.333333333333     -0.166666666667     -0.500000000000
     -0.333333333333     -0.500000000000     -0.166666666667
      0.166666666667     -0.166666666667      0.333333333333
      0.166666666667     -0.333333333333     -0.166666666667
     -0.166666666667      0.166666666667      0.333333333333
     -0.333333333333      0.166666666667     -0.166666666667
     -0.500000000000     -0.333333333333     -0.166666666667
     -0.166666666667     -0.333333333333     -0.500000000000
      0.333333333333      0.166666666667     -0.166666666667
     -0.166666666667      0.166666666667     -0.333333333333
      0.333333333333     -0.166666666667      0.166666666667
     -0.166666666667     -0.333333333333      0.166666666667
     -0.166666666667     -0.500000000000     -0.333333333333
      0.500000000000      0.166666666667      0.333333333333
      0.333333333333      0.500000000000      0.166666666667
      0.166666666667      0.333333333333      0.500000000000
      0.166666666667     -0.333333333333      0.333333333333
      0.333333333333      0.166666666667     -0.333333333333
     -0.333333333333     -0.166666666667     -0.666666666667
      0.333333333333      0.666666666667      0.500000000000
     -0.166666666667     -0.500000000000      0.166666666667
      0.166666666667     -0.500000000000     -0.166666666667
     -0.666666666667     -0.166666666667     -0.333333333333
      0.500000000000      0.666666666667      0.333333333333
      0.500000000000      0.333333333333      0.666666666667
      0.166666666667     -0.166666666667     -0.500000000000
     -0.666666666667     -0.333333333333     -0.166666666667
     -0.166666666667      0.166666666667     -0.500000000000
     -0.333333333333     -0.666666666667     -0.166666666667
      0.333333333333      0.500000000000      0.666666666667
      0.666666666667      0.500000000000      0.333333333333
     -0.500000000000      0.166666666667     -0.166666666667
     -0.166666666667     -0.666666666667     -0.333333333333
     -0.500000000000     -0.166666666667      0.166666666667
     -0.166666666667     -0.333333333333     -0.666666666667
      0.666666666667      0.333333333333      0.500000000000
     -0.333333333333      0.166666666667      0.333333333333
      0.333333333333     -0.333333333333      0.166666666667
      0.166666666667      0.333333333333     -0.333333333333
      0.166666666667     -0.333333333333      0.500000000000
      0.500000000000      0.166666666667     -0.333333333333
     -0.500000000000     -0.333333333333     -0.833333333333
      0.333333333333      0.833333333333      0.500000000000
     -0.166666666667     -0.500000000000      0.333333333333
      0.333333333333     -0.500000000000     -0.166666666667
      0.500000000000      0.833333333333      0.333333333333
      0.500000000000      0.333333333333      0.833333333333
     -0.833333333333     -0.500000000000     -0.333333333333
     -0.166666666667      0.333333333333     -0.500000000000
     -0.333333333333     -0.833333333333     -0.500000000000
end kpoints

# Band-structure plot 
restart         =  plot
bands_plot      =  true
begin kpoint_path
G 0.000 0.000 0.000 X 0.500 0.000 0.500
X 0.500 0.000 0.500 U 0.625 0.250 0.625
K 0.375 0.375 0.750 G 0.000 0.000 0.000
G 0.000 0.000 0.000 L 0.500 0.500 0.500
L 0.500 0.500 0.500 W 0.500 0.250 0.750
W 0.500 0.250 0.750 X 0.500 0.000 0.500
end kpoint_path
bands_num_points 40
bands_plot_format gnuplot

