cd Si
5.430
  0.5 0.5 0.0
  0.0 0.5 0.5
  0.5 0.0 0.5
Si
2
Cartesian
  0.00 0.00 0.00 Si
  0.25 0.25 0.25 Si
